33D32945 STP File, STP Format Version 1.0

SECTION Comment
Name    "i080-143"
Creator "Cees Duin"
Remark  "Incidence graph"
END

SECTION Graph
Nodes 80
Edges 632
E 1 10 199
E 1 15 203
E 1 19 198
E 1 21 203
E 1 23 204
E 1 24 196
E 1 29 196
E 1 31 198
E 1 32 197
E 1 34 191
E 1 36 194
E 1 37 205
E 1 40 199
E 1 43 207
E 1 48 193
E 1 49 200
E 1 52 197
E 1 55 209
E 1 60 203
E 1 63 197
E 1 66 191
E 1 67 199
E 1 72 197
E 1 73 202
E 1 79 200
E 1 80 213
E 2 6 301
E 2 10 204
E 2 15 189
E 2 24 203
E 2 28 198
E 2 30 198
E 2 31 194
E 2 32 197
E 2 42 196
E 2 47 192
E 2 52 202
E 2 53 196
E 2 58 198
E 2 61 198
E 2 65 195
E 2 68 203
E 2 69 194
E 2 71 198
E 2 80 195
E 3 9 199
E 3 13 201
E 3 15 193
E 3 19 205
E 3 26 207
E 3 40 199
E 3 41 196
E 3 57 203
E 4 7 305
E 4 11 207
E 4 24 203
E 4 28 207
E 4 30 204
E 4 32 194
E 4 37 203
E 4 51 203
E 4 60 197
E 4 66 202
E 4 70 200
E 4 72 190
E 4 73 201
E 4 78 205
E 5 7 296
E 5 10 201
E 5 16 198
E 5 22 199
E 5 26 202
E 5 32 199
E 5 34 202
E 5 37 194
E 5 46 205
E 5 52 197
E 5 57 190
E 5 61 206
E 5 65 200
E 5 68 205
E 5 69 196
E 6 11 205
E 6 19 189
E 6 27 203
E 6 37 199
E 6 39 195
E 6 44 199
E 6 45 200
E 6 57 195
E 6 64 202
E 6 69 208
E 6 77 196
E 6 78 200
E 7 8 292
E 7 17 190
E 7 18 204
E 7 23 207
E 7 26 199
E 7 31 195
E 7 32 201
E 7 34 202
E 7 45 211
E 7 46 203
E 7 52 197
E 7 69 194
E 7 70 222
E 7 74 199
E 7 75 199
E 7 76 206
E 7 77 195
E 7 78 203
E 7 80 205
E 8 10 202
E 8 19 200
E 8 20 202
E 8 22 194
E 8 29 197
E 8 35 198
E 8 36 193
E 8 38 196
E 8 39 207
E 8 42 198
E 8 47 201
E 8 51 196
E 8 52 188
E 8 62 199
E 8 63 199
E 8 69 199
E 8 72 189
E 8 78 197
E 8 79 200
E 9 12 97
E 9 13 102
E 9 22 103
E 9 25 100
E 9 26 105
E 9 28 97
E 9 30 109
E 9 32 99
E 9 37 93
E 9 38 97
E 9 43 100
E 9 44 95
E 9 49 104
E 9 51 98
E 9 56 90
E 9 63 101
E 9 67 102
E 9 75 96
E 9 77 99
E 10 14 99
E 10 19 111
E 10 27 105
E 10 47 91
E 10 49 103
E 10 50 104
E 10 51 101
E 10 53 95
E 10 55 95
E 10 65 101
E 10 68 94
E 10 69 101
E 11 16 106
E 11 31 98
E 11 35 102
E 11 56 101
E 11 57 104
E 11 63 96
E 11 66 97
E 11 69 92
E 11 76 112
E 11 77 99
E 11 79 100
E 12 18 98
E 12 20 104
E 12 32 92
E 12 38 100
E 12 46 103
E 12 47 97
E 12 48 91
E 12 55 103
E 12 63 106
E 12 64 93
E 12 74 108
E 13 14 97
E 13 17 95
E 13 18 98
E 13 23 101
E 13 25 105
E 13 30 97
E 13 33 95
E 13 42 103
E 13 52 101
E 13 54 104
E 13 56 93
E 13 57 97
E 13 65 102
E 13 72 105
E 13 74 112
E 14 18 90
E 14 29 100
E 14 30 110
E 14 33 94
E 14 42 100
E 14 44 93
E 14 45 102
E 14 63 96
E 14 64 101
E 14 67 99
E 14 69 97
E 14 74 98
E 14 77 106
E 14 78 87
E 14 79 110
E 15 20 104
E 15 25 99
E 15 29 100
E 15 36 101
E 15 42 101
E 15 43 103
E 15 47 96
E 15 62 87
E 15 70 103
E 15 72 99
E 16 27 100
E 16 29 96
E 16 37 104
E 16 45 100
E 16 46 103
E 16 48 100
E 16 60 96
E 16 62 95
E 16 63 101
E 16 64 110
E 17 19 99
E 17 27 97
E 17 31 101
E 17 50 87
E 17 55 96
E 17 56 104
E 17 68 101
E 17 72 103
E 17 75 94
E 17 78 100
E 17 80 105
E 18 22 98
E 18 27 95
E 18 33 95
E 18 35 95
E 18 59 98
E 18 65 97
E 18 67 104
E 18 71 101
E 19 21 104
E 19 24 107
E 19 26 108
E 19 35 90
E 19 40 113
E 19 45 103
E 19 49 100
E 19 55 107
E 19 59 100
E 19 61 105
E 19 62 100
E 19 67 100
E 19 70 95
E 19 74 103
E 19 79 112
E 20 35 104
E 20 38 96
E 20 46 95
E 20 49 104
E 20 55 100
E 20 63 105
E 20 71 104
E 20 73 93
E 20 74 107
E 21 26 98
E 21 38 94
E 21 40 96
E 21 48 101
E 21 54 96
E 21 55 106
E 21 59 102
E 21 61 102
E 21 63 104
E 21 72 104
E 21 75 102
E 21 79 104
E 22 35 98
E 22 42 100
E 22 44 108
E 22 56 100
E 22 62 90
E 22 72 96
E 22 77 108
E 23 28 99
E 23 30 104
E 23 33 100
E 23 35 105
E 23 38 99
E 23 42 101
E 23 46 95
E 23 47 89
E 23 53 106
E 23 55 93
E 23 56 96
E 23 62 101
E 23 67 97
E 23 68 102
E 23 70 96
E 23 76 89
E 23 77 111
E 24 30 100
E 24 34 97
E 24 36 98
E 24 38 101
E 24 48 104
E 24 57 101
E 24 61 103
E 24 65 100
E 24 67 103
E 24 78 103
E 25 31 100
E 25 35 102
E 25 36 96
E 25 48 101
E 25 50 97
E 25 53 98
E 25 64 100
E 25 75 95
E 25 77 98
E 25 79 102
E 26 27 104
E 26 32 100
E 26 39 100
E 26 47 95
E 26 48 99
E 26 54 98
E 26 67 98
E 26 68 104
E 26 69 89
E 26 70 92
E 26 79 105
E 27 32 94
E 27 37 97
E 27 41 90
E 27 45 103
E 27 49 104
E 27 50 96
E 27 51 96
E 27 52 99
E 27 54 89
E 27 55 99
E 27 62 91
E 27 64 97
E 27 67 100
E 27 70 105
E 27 72 100
E 27 73 102
E 27 76 105
E 27 77 93
E 28 38 107
E 28 42 97
E 28 53 101
E 28 60 100
E 28 69 96
E 28 75 101
E 28 78 100
E 28 80 110
E 29 33 101
E 29 41 96
E 29 47 115
E 29 48 96
E 29 49 111
E 29 56 100
E 29 60 105
E 29 79 106
E 30 34 103
E 30 35 104
E 30 42 95
E 30 44 104
E 30 45 103
E 30 47 101
E 30 49 109
E 30 54 96
E 30 65 88
E 30 69 103
E 30 72 100
E 30 74 98
E 30 77 97
E 31 42 99
E 31 45 98
E 31 49 97
E 31 50 100
E 31 52 105
E 31 53 100
E 31 59 94
E 31 60 99
E 31 67 103
E 31 79 92
E 32 39 109
E 32 45 97
E 32 46 104
E 32 51 112
E 32 54 111
E 32 56 103
E 32 57 99
E 32 64 102
E 32 66 98
E 32 67 94
E 32 68 101
E 32 71 104
E 32 78 102
E 32 79 96
E 33 34 102
E 33 37 100
E 33 41 97
E 33 42 102
E 33 46 96
E 33 48 105
E 33 49 107
E 33 52 95
E 33 57 103
E 33 73 101
E 33 75 95
E 33 76 91
E 33 79 101
E 34 40 98
E 34 42 113
E 34 44 109
E 34 47 103
E 34 54 107
E 34 65 97
E 34 67 100
E 34 79 96
E 34 80 105
E 35 37 104
E 35 54 97
E 35 55 102
E 35 60 96
E 35 62 99
E 35 63 106
E 35 66 101
E 35 68 107
E 35 73 103
E 35 76 91
E 35 78 103
E 36 37 109
E 36 42 104
E 36 51 111
E 36 53 100
E 36 60 97
E 36 63 91
E 36 70 101
E 36 73 91
E 36 79 96
E 37 39 105
E 37 69 97
E 37 71 100
E 37 73 97
E 37 74 108
E 37 80 104
E 38 51 106
E 38 54 89
E 38 55 99
E 38 57 96
E 38 61 100
E 38 62 104
E 38 63 104
E 38 74 103
E 38 75 103
E 39 42 92
E 39 48 99
E 39 51 94
E 39 57 100
E 40 42 98
E 40 54 86
E 40 60 95
E 40 61 96
E 40 64 104
E 40 65 99
E 40 70 94
E 40 76 97
E 40 77 104
E 40 80 106
E 41 51 103
E 41 53 99
E 41 55 99
E 41 65 98
E 41 66 102
E 41 75 96
E 41 79 98
E 42 44 97
E 42 49 101
E 42 55 101
E 42 60 101
E 42 65 102
E 42 68 110
E 43 47 99
E 43 49 94
E 43 51 100
E 43 54 104
E 43 56 96
E 43 58 100
E 43 60 94
E 43 70 86
E 43 73 101
E 43 75 107
E 44 49 99
E 44 62 95
E 44 67 105
E 44 72 108
E 44 73 94
E 44 80 96
E 45 51 95
E 45 55 97
E 45 65 95
E 45 68 104
E 45 73 100
E 46 51 94
E 46 52 101
E 46 65 99
E 46 75 105
E 46 76 104
E 46 77 102
E 47 49 107
E 47 53 92
E 47 55 97
E 47 59 106
E 47 60 105
E 47 65 99
E 48 49 98
E 48 54 102
E 48 57 103
E 48 70 91
E 48 71 97
E 49 63 105
E 49 71 100
E 49 73 102
E 49 75 95
E 49 79 99
E 49 80 92
E 50 53 100
E 50 55 101
E 50 62 93
E 50 69 106
E 51 52 96
E 51 53 88
E 51 54 98
E 51 59 100
E 51 60 99
E 51 69 103
E 51 72 101
E 51 77 102
E 52 56 109
E 52 58 102
E 52 68 97
E 52 76 99
E 52 78 94
E 52 79 103
E 53 64 92
E 53 69 96
E 53 71 103
E 53 72 95
E 53 79 94
E 54 58 100
E 54 62 102
E 54 71 97
E 54 72 94
E 55 57 109
E 55 65 101
E 55 66 98
E 55 67 109
E 55 70 103
E 55 75 90
E 56 73 89
E 57 59 115
E 57 60 95
E 57 66 92
E 57 67 107
E 57 68 104
E 57 72 106
E 58 60 103
E 58 61 101
E 58 66 97
E 58 71 99
E 59 63 99
E 59 75 99
E 60 61 92
E 60 71 101
E 60 72 98
E 60 75 103
E 61 63 100
E 61 65 102
E 61 66 94
E 61 69 99
E 61 74 99
E 61 76 103
E 62 67 101
E 62 72 104
E 62 76 95
E 63 72 102
E 63 73 103
E 63 77 107
E 64 73 103
E 64 74 94
E 64 79 105
E 65 76 102
E 66 73 95
E 66 76 103
E 66 79 107
E 67 75 98
E 67 78 98
E 68 75 101
E 69 71 101
E 69 75 99
E 69 78 94
E 70 75 103
E 70 76 99
E 70 77 101
E 70 80 103
E 71 79 101
E 72 73 100
E 72 77 101
E 73 74 103
E 73 76 111
E 73 79 96
E 74 76 107
E 74 79 103
E 75 79 96
END

SECTION Terminals
Terminals 8
T 1
T 2
T 3
T 4
T 5
T 6
T 7
T 8
END

EOF
